language Essence 1.3

letting bot_end be
        [100, 1453, 94, 875, 63, 1098, 1772, 296, 624, 117, 1948, 47, 1035, 609, 303, 1217, 1674, 615, 903, 1987, 1313,
         1478, 453, 1714, 796, 14, 1226, 2074, 643, 1647, 620, 299, 594, 1267, 906, 1044, 1764, 1723, 374, 605, 1056,
         1413, 548, 393, 1736;
             int(1..45)]
letting bot_start be
        [1950, 1416, 1339, 502, 1288, 1613, 1505, 793, 67, 182, 101, 1099, 1630, 1728, 688, 1710, 331, 580, 1216, 1002,
         363, 296, 1962, 1181, 31, 470, 1521, 402, 1252, 712, 444, 1451, 1674, 276, 1172, 1582, 1331, 132, 1515, 1642,
         1013, 929, 1166, 896, 697;
             int(1..45)]
letting bots be 45
letting buffer_col be 2
letting buffer_row be 2
letting corridor_size be 1
letting n_shelves_col be 16
letting n_shelves_row be 18
letting shelf_col_size be 2
letting shelf_row_size be 1
